% Generated FlatZinc statistics:
%%%mzn-stat: paths=0
%%%mzn-stat: flatBoolVars=3920
%%%mzn-stat: flatIntVars=4080
%%%mzn-stat: flatIntConstraints=7913
%%%mzn-stat: evaluatedReifiedConstraints=3920
%%%mzn-stat: method="maximize"
%%%mzn-stat: flatTime=0.32188
%%%mzn-stat-end

Team = [1, 2, 3, 4, 5, 6, 7, 8, 9, 10, 11, 12, 13, 14, 15, 16, 17, 18, 19, 20, 21, 22, 23, 24, 25, 26, 27, 28, 29, 30, 31, 4, 22, 24, 28, 11, 7, 9, 29, 30, 5, 16, 6, 23, 14, 20, 25, 19, 8, 26, 31, 2, 17, 1, 10, 13, 3, 21, 27, 12, 15, 18, 26, 28, 16, 31, 13, 4, 21, 5, 18, 24, 27, 3, 1, 2, 22, 19, 15, 29, 23, 20, 8, 30, 14, 25, 9, 10, 12, 11, 7, 6, 17, 31, 4, 21, 25, 2, 27, 17, 15, 19, 12, 7, 30, 18, 23, 1, 14, 29, 5, 20, 10, 26, 22, 16, 8, 24, 6, 28, 13, 3, 9, 11, 28, 26, 2, 12, 23, 27, 18, 29, 20, 31, 15, 17, 30, 10, 13, 8, 25, 9, 22, 16, 14, 21, 4, 1, 11, 6, 7, 5, 24, 19, 3];
objective = 66664;
----------
==========
%%%mzn-stat: objective=66664
%%%mzn-stat: objectiveBound=66664
%%%mzn-stat: boolVariables=10240
%%%mzn-stat: failures=785003
%%%mzn-stat: propagations=206652539
%%%mzn-stat: solveTime=431.199
%%%mzn-stat: nSolutions=1
%%%mzn-stat-end
